NAME: A-n63-k9-C21-V3
TYPE: SoftCluVRP
DIMENSION:  63 
VEHICLES:  3 
GVRP_SETS:  21 
CAPACITY:  100 
EDGE_WEIGHT_TYPE: EUC_2D
NODE_COORD_SECTION 
1 91.000000 93.000000
2 7.000000 5.000000
3 27.000000 91.000000
4 21.000000 47.000000
5 33.000000 11.000000
6 19.000000 99.000000
7 59.000000 25.000000
8 69.000000 79.000000
9 11.000000 73.000000
10 21.000000 35.000000
11 59.000000 45.000000
12 99.000000 81.000000
13 71.000000 47.000000
14 53.000000 83.000000
15 87.000000 1.000000
16 79.000000 67.000000
17 59.000000 65.000000
18 67.000000 21.000000
19 27.000000 1.000000
20 81.000000 93.000000
21 59.000000 89.000000
22 95.000000 23.000000
23 73.000000 25.000000
24 41.000000 25.000000
25 3.000000 65.000000
26 59.000000 83.000000
27 83.000000 97.000000
28 5.000000 83.000000
29 71.000000 35.000000
30 37.000000 97.000000
31 29.000000 93.000000
32 19.000000 21.000000
33 83.000000 13.000000
34 97.000000 67.000000
35 31.000000 83.000000
36 65.000000 17.000000
37 19.000000 63.000000
38 59.000000 23.000000
39 17.000000 25.000000
40 45.000000 27.000000
41 89.000000 7.000000
42 19.000000 41.000000
43 23.000000 39.000000
44 23.000000 21.000000
45 83.000000 61.000000
46 11.000000 93.000000
47 17.000000 11.000000
48 35.000000 11.000000
49 21.000000 59.000000
50 21.000000 69.000000
51 71.000000 13.000000
52 63.000000 13.000000
53 49.000000 21.000000
54 83.000000 31.000000
55 41.000000 97.000000
56 85.000000 15.000000
57 77.000000 73.000000
58 57.000000 1.000000
59 83.000000 11.000000
60 1.000000 75.000000
61 45.000000 71.000000
62 41.000000 55.000000
63 45.000000 13.000000
GVRP_SET_SECTION 
 1 2  47 -1
 2  12  34 -1
 3  46  6  28 -1
 4  15  33  41  56  59 -1
 5  11  13 -1
 6  21  8  14  26 -1
 7  4  10  42  43 -1
 8  63  5  24  40  48  53 -1
 9  54  22  29 -1
 10  45  16  57 -1
 11  25  9  60 -1
 12  27  20 -1
 13  30  3  31  35  55 -1
 14  44  32  39 -1
 15  61 -1
 16  19 -1
 17  36  7  18  23  38  51  52 -1
 18  50  37  49 -1
 19  58 -1
 20  62 -1
 21  17 -1
 DEMAND_SECTION
 1 3 
 2 19 
 3 10 
 4 9 
 5 13 
 6 11 
 7 17 
 8 10 
 9 16 
 10 20 
 11 20 
 12 11 
 13 16 
 14 16 
 15 18 
 16 20 
 17 13 
 18 13 
 19 17 
 20 19 
 21 5 
EOF
